StringID   Type       x          y          demand     ReadyTime  DueDate    ServiceTime wp1 wp2 wp3 wp4 wp5 wp6 wp7 wp8 wp9 wp10 wp11 wp12 wp13 wp14 wp15 wp16
D0         d          40.0       50.0       0.0        0.0        960.0      0.0         6   7   8   9   10  11  12  13  14  15   16   17   18   19   20   21 
S0         f          40.0       50.0       0.0        0.0        960.0      0.0         0.2 0.4 0.6 1   1   1   1   1   1   1    1    0.6  0.4  0.2  0    0 
S7         f          21.0       83.0       0.0        0.0        960.0      0.0         0.2 0.4 0.6 1   1   1   1   1   1   1    1    0.6  0.4  0.2  0    0  
S9         f          14.0       59.0       0.0        0.0        960.0      0.0         0   0.1 0.2 0.3 0.3 0.2 0.2 0.2 0.2 0.3  0.3  0.2  0.1  0.0  0    0 
S11        f          10.0       28.0       0.0        0.0        960.0      0.0         0   0.1 0.2 0.3 0.3 0.2 0.2 0.2 0.2 0.3  0.3  0.2  0.1  0.0  0    0    
S13        f          22.0       34.0       0.0        0.0        960.0      0.0         0.2 0.4 0.6 1   1   1   1   1   1   1    1    0.6  0.4  0.2  0    0 
S14        f          27.0       10.0       0.0        0.0        960.0      0.0         0   0.1 0.2 0.3 0.3 0.2 0.2 0.2 0.2 0.3  0.3  0.2  0.1  0.0  0    0
S17        f          61.0       14.0       0.0        0.0        960.0      0.0         0.2 0.4 0.6 1   1   1   1   1   1   1    1    0.6  0.4  0.2  0    0 
C79        c          6.0        68.0       30.0       39.0       159.0      10.0       
C10        c          10.0       40.0       30.0       0.0        918.0      10.0       
C61        c          45.0       65.0       9.0        618.0      738.0      10.0       
C2         c          22.0       75.0       30.0       0.0        919.0      10.0       
C98        c          26.0       52.0       9.0        0.0        935.0      10.0       
C49        c          42.0       12.0       10.0       0.0        911.0      10.0       
C1         c          25.0       85.0       20.0       300.0      420.0      10.0       
C63        c          65.0       20.0       6.0        0.0        910.0      10.0       
C74        c          20.0       20.0       8.0        0.0        913.0      10.0       
C75        c          5.0        5.0        16.0       0.0        879.0      10.0       
C22        c          40.0       15.0       40.0       0.0        915.0      10.0       
C20        c          42.0       15.0       10.0       208.0      328.0      10.0       
C76        c          60.0       12.0       31.0       0.0        907.0      10.0       
C48        c          42.0       5.0        10.0       0.0        904.0      10.0       
C86        c          21.0       24.0       28.0       0.0        917.0      10.0       

F Vehicle fuel tank capacity /12/
Q Vehicle load capacity /1000.0/
r fuel consumption rate /0.155/
g inverse refueling rate /0.5/
v average Velocity /1.0/
